c nIsolatedPIs 10
c maxPI 20
p cnf 290 811
c gate 21 1 18 0
1 -21 0
18 -21 0
-1 -18 21 0
c gate 22 2 17 0
2 -22 0
17 -22 0
-2 -17 22 0
c gate 23 21 22 0
21 -23 0
22 -23 0
-21 -22 23 0
c gate 24 1 19 0
1 -24 0
19 -24 0
-1 -19 24 0
c gate 25 2 18 0
2 -25 0
18 -25 0
-2 -18 25 0
c gate 26 3 17 0
3 -26 0
17 -26 0
-3 -17 26 0
c gate 27 -25 -26 0
-25 -27 0
-26 -27 0
25 26 27 0
c gate 28 25 26 0
25 -28 0
26 -28 0
-25 -26 28 0
c gate 29 -27 -28 0
-27 -29 0
-28 -29 0
27 28 29 0
c gate 30 -24 -29 0
-24 -30 0
-29 -30 0
24 29 30 0
c gate 31 24 29 0
24 -31 0
29 -31 0
-24 -29 31 0
c gate 32 -30 -31 0
-30 -32 0
-31 -32 0
30 31 32 0
c gate 33 4 15 0
4 -33 0
15 -33 0
-4 -15 33 0
c gate 34 5 14 0
5 -34 0
14 -34 0
-5 -14 34 0
c gate 35 33 34 0
33 -35 0
34 -35 0
-33 -34 35 0
c gate 36 3 16 0
3 -36 0
16 -36 0
-3 -16 36 0
c gate 37 -33 -34 0
-33 -37 0
-34 -37 0
33 34 37 0
c gate 38 -35 -37 0
-35 -38 0
-37 -38 0
35 37 38 0
c gate 39 36 38 0
36 -39 0
38 -39 0
-36 -38 39 0
c gate 40 -35 -39 0
-35 -40 0
-39 -40 0
35 39 40 0
c gate 41 32 -40 0
32 -41 0
-40 -41 0
-32 40 41 0
c gate 42 -32 40 0
-32 -42 0
40 -42 0
32 -40 42 0
c gate 43 -41 -42 0
-41 -43 0
-42 -43 0
41 42 43 0
c gate 44 -23 -43 0
-23 -44 0
-43 -44 0
23 43 44 0
c gate 45 23 43 0
23 -45 0
43 -45 0
-23 -43 45 0
c gate 46 -44 -45 0
-44 -46 0
-45 -46 0
44 45 46 0
c gate 47 4 16 0
4 -47 0
16 -47 0
-4 -16 47 0
c gate 48 5 15 0
5 -48 0
15 -48 0
-5 -15 48 0
c gate 49 6 14 0
6 -49 0
14 -49 0
-6 -14 49 0
c gate 50 -48 -49 0
-48 -50 0
-49 -50 0
48 49 50 0
c gate 51 48 49 0
48 -51 0
49 -51 0
-48 -49 51 0
c gate 52 -50 -51 0
-50 -52 0
-51 -52 0
50 51 52 0
c gate 53 -47 -52 0
-47 -53 0
-52 -53 0
47 52 53 0
c gate 54 47 52 0
47 -54 0
52 -54 0
-47 -52 54 0
c gate 55 -53 -54 0
-53 -55 0
-54 -55 0
53 54 55 0
c gate 56 7 13 0
7 -56 0
13 -56 0
-7 -13 56 0
c gate 57 8 12 0
8 -57 0
12 -57 0
-8 -12 57 0
c gate 58 9 11 0
9 -58 0
11 -58 0
-9 -11 58 0
c gate 59 -57 -58 0
-57 -59 0
-58 -59 0
57 58 59 0
c gate 60 57 58 0
57 -60 0
58 -60 0
-57 -58 60 0
c gate 61 -59 -60 0
-59 -61 0
-60 -61 0
59 60 61 0
c gate 62 -56 -61 0
-56 -62 0
-61 -62 0
56 61 62 0
c gate 63 56 61 0
56 -63 0
61 -63 0
-56 -61 63 0
c gate 64 -62 -63 0
-62 -64 0
-63 -64 0
62 63 64 0
c gate 65 7 12 0
7 -65 0
12 -65 0
-7 -12 65 0
c gate 66 8 11 0
8 -66 0
11 -66 0
-8 -11 66 0
c gate 67 -65 -66 0
-65 -67 0
-66 -67 0
65 66 67 0
c gate 68 65 66 0
65 -68 0
66 -68 0
-65 -66 68 0
c gate 69 -67 -68 0
-67 -69 0
-68 -69 0
67 68 69 0
c gate 70 6 13 0
6 -70 0
13 -70 0
-6 -13 70 0
c gate 71 69 -70 0
69 -71 0
-70 -71 0
-69 70 71 0
c gate 72 -67 -71 0
-67 -72 0
-71 -72 0
67 71 72 0
c gate 73 64 72 0
64 -73 0
72 -73 0
-64 -72 73 0
c gate 74 -64 -72 0
-64 -74 0
-72 -74 0
64 72 74 0
c gate 75 -73 -74 0
-73 -75 0
-74 -75 0
73 74 75 0
c gate 76 -55 -75 0
-55 -76 0
-75 -76 0
55 75 76 0
c gate 77 55 75 0
55 -77 0
75 -77 0
-55 -75 77 0
c gate 78 -76 -77 0
-76 -78 0
-77 -78 0
76 77 78 0
c gate 79 6 12 0
6 -79 0
12 -79 0
-6 -12 79 0
c gate 80 7 11 0
7 -80 0
11 -80 0
-7 -11 80 0
c gate 81 79 80 0
79 -81 0
80 -81 0
-79 -80 81 0
c gate 82 5 13 0
5 -82 0
13 -82 0
-5 -13 82 0
c gate 83 -79 -80 0
-79 -83 0
-80 -83 0
79 80 83 0
c gate 84 -81 -83 0
-81 -84 0
-83 -84 0
81 83 84 0
c gate 85 82 84 0
82 -85 0
84 -85 0
-82 -84 85 0
c gate 86 -81 -85 0
-81 -86 0
-85 -86 0
81 85 86 0
c gate 87 -69 70 0
-69 -87 0
70 -87 0
69 -70 87 0
c gate 88 -71 -87 0
-71 -88 0
-87 -88 0
71 87 88 0
c gate 89 86 88 0
86 -89 0
88 -89 0
-86 -88 89 0
c gate 90 -86 -88 0
-86 -90 0
-88 -90 0
86 88 90 0
c gate 91 -89 -90 0
-89 -91 0
-90 -91 0
89 90 91 0
c gate 92 -36 -38 0
-36 -92 0
-38 -92 0
36 38 92 0
c gate 93 -39 -92 0
-39 -93 0
-92 -93 0
39 92 93 0
c gate 94 91 -93 0
91 -94 0
-93 -94 0
-91 93 94 0
c gate 95 -89 -94 0
-89 -95 0
-94 -95 0
89 94 95 0
c gate 96 78 95 0
78 -96 0
95 -96 0
-78 -95 96 0
c gate 97 -78 -95 0
-78 -97 0
-95 -97 0
78 95 97 0
c gate 98 -96 -97 0
-96 -98 0
-97 -98 0
96 97 98 0
c gate 99 -46 -98 0
-46 -99 0
-98 -99 0
46 98 99 0
c gate 100 46 98 0
46 -100 0
98 -100 0
-46 -98 100 0
c gate 101 -99 -100 0
-99 -101 0
-100 -101 0
99 100 101 0
c gate 102 5 12 0
5 -102 0
12 -102 0
-5 -12 102 0
c gate 103 6 11 0
6 -103 0
11 -103 0
-6 -11 103 0
c gate 104 102 103 0
102 -104 0
103 -104 0
-102 -103 104 0
c gate 105 4 13 0
4 -105 0
13 -105 0
-4 -13 105 0
c gate 106 -102 -103 0
-102 -106 0
-103 -106 0
102 103 106 0
c gate 107 -104 -106 0
-104 -107 0
-106 -107 0
104 106 107 0
c gate 108 105 107 0
105 -108 0
107 -108 0
-105 -107 108 0
c gate 109 -104 -108 0
-104 -109 0
-108 -109 0
104 108 109 0
c gate 110 -82 -84 0
-82 -110 0
-84 -110 0
82 84 110 0
c gate 111 -85 -110 0
-85 -111 0
-110 -111 0
85 110 111 0
c gate 112 -109 111 0
-109 -112 0
111 -112 0
109 -111 112 0
c gate 113 2 16 0
2 -113 0
16 -113 0
-2 -16 113 0
c gate 114 3 15 0
3 -114 0
15 -114 0
-3 -15 114 0
c gate 115 4 14 0
4 -115 0
14 -115 0
-4 -14 115 0
c gate 116 -114 -115 0
-114 -116 0
-115 -116 0
114 115 116 0
c gate 117 114 115 0
114 -117 0
115 -117 0
-114 -115 117 0
c gate 118 -116 -117 0
-116 -118 0
-117 -118 0
116 117 118 0
c gate 119 113 118 0
113 -119 0
118 -119 0
-113 -118 119 0
c gate 120 -113 -118 0
-113 -120 0
-118 -120 0
113 118 120 0
c gate 121 -119 -120 0
-119 -121 0
-120 -121 0
119 120 121 0
c gate 122 109 -111 0
109 -122 0
-111 -122 0
-109 111 122 0
c gate 123 -112 -122 0
-112 -123 0
-122 -123 0
112 122 123 0
c gate 124 121 123 0
121 -124 0
123 -124 0
-121 -123 124 0
c gate 125 -112 -124 0
-112 -125 0
-124 -125 0
112 124 125 0
c gate 126 -91 93 0
-91 -126 0
93 -126 0
91 -93 126 0
c gate 127 -94 -126 0
-94 -127 0
-126 -127 0
94 126 127 0
c gate 128 125 127 0
125 -128 0
127 -128 0
-125 -127 128 0
c gate 129 -125 -127 0
-125 -129 0
-127 -129 0
125 127 129 0
c gate 130 -128 -129 0
-128 -130 0
-129 -130 0
128 129 130 0
c gate 131 -21 -22 0
-21 -131 0
-22 -131 0
21 22 131 0
c gate 132 -23 -131 0
-23 -132 0
-131 -132 0
23 131 132 0
c gate 133 -117 -119 0
-117 -133 0
-119 -133 0
117 119 133 0
c gate 134 -132 133 0
-132 -134 0
133 -134 0
132 -133 134 0
c gate 135 132 -133 0
132 -135 0
-133 -135 0
-132 133 135 0
c gate 136 -134 -135 0
-134 -136 0
-135 -136 0
134 135 136 0
c gate 137 130 -136 0
130 -137 0
-136 -137 0
-130 136 137 0
c gate 138 -128 -137 0
-128 -138 0
-137 -138 0
128 137 138 0
c gate 139 101 138 0
101 -139 0
138 -139 0
-101 -138 139 0
c gate 140 -101 -138 0
-101 -140 0
-138 -140 0
101 138 140 0
c gate 141 -139 -140 0
-139 -141 0
-140 -141 0
139 140 141 0
c gate 142 135 141 0
135 -142 0
141 -142 0
-135 -141 142 0
c gate 143 -139 -142 0
-139 -143 0
-142 -143 0
139 142 143 0
c gate 144 1 20 0
1 -144 0
20 -144 0
-1 -20 144 0
c gate 145 -41 -45 0
-41 -145 0
-45 -145 0
41 45 145 0
c gate 146 144 -145 0
144 -146 0
-145 -146 0
-144 145 146 0
c gate 147 -144 145 0
-144 -147 0
145 -147 0
144 -145 147 0
c gate 148 -146 -147 0
-146 -148 0
-147 -148 0
146 147 148 0
c gate 149 -96 -100 0
-96 -149 0
-100 -149 0
96 100 149 0
c gate 150 -28 -31 0
-28 -150 0
-31 -150 0
28 31 150 0
c gate 151 2 19 0
2 -151 0
19 -151 0
-2 -19 151 0
c gate 152 3 18 0
3 -152 0
18 -152 0
-3 -18 152 0
c gate 153 4 17 0
4 -153 0
17 -153 0
-4 -17 153 0
c gate 154 -152 -153 0
-152 -154 0
-153 -154 0
152 153 154 0
c gate 155 152 153 0
152 -155 0
153 -155 0
-152 -153 155 0
c gate 156 -154 -155 0
-154 -156 0
-155 -156 0
154 155 156 0
c gate 157 -151 -156 0
-151 -157 0
-156 -157 0
151 156 157 0
c gate 158 151 156 0
151 -158 0
156 -158 0
-151 -156 158 0
c gate 159 -157 -158 0
-157 -159 0
-158 -159 0
157 158 159 0
c gate 160 -51 -54 0
-51 -160 0
-54 -160 0
51 54 160 0
c gate 161 159 -160 0
159 -161 0
-160 -161 0
-159 160 161 0
c gate 162 -159 160 0
-159 -162 0
160 -162 0
159 -160 162 0
c gate 163 -161 -162 0
-161 -163 0
-162 -163 0
161 162 163 0
c gate 164 150 -163 0
150 -164 0
-163 -164 0
-150 163 164 0
c gate 165 -150 163 0
-150 -165 0
163 -165 0
150 -163 165 0
c gate 166 -164 -165 0
-164 -166 0
-165 -166 0
164 165 166 0
c gate 167 -73 -77 0
-73 -167 0
-77 -167 0
73 77 167 0
c gate 168 5 16 0
5 -168 0
16 -168 0
-5 -16 168 0
c gate 169 6 15 0
6 -169 0
15 -169 0
-6 -15 169 0
c gate 170 7 14 0
7 -170 0
14 -170 0
-7 -14 170 0
c gate 171 -169 -170 0
-169 -171 0
-170 -171 0
169 170 171 0
c gate 172 169 170 0
169 -172 0
170 -172 0
-169 -170 172 0
c gate 173 -171 -172 0
-171 -173 0
-172 -173 0
171 172 173 0
c gate 174 -168 -173 0
-168 -174 0
-173 -174 0
168 173 174 0
c gate 175 168 173 0
168 -175 0
173 -175 0
-168 -173 175 0
c gate 176 -174 -175 0
-174 -176 0
-175 -176 0
174 175 176 0
c gate 177 -60 -63 0
-60 -177 0
-63 -177 0
60 63 177 0
c gate 178 8 13 0
8 -178 0
13 -178 0
-8 -13 178 0
c gate 179 9 12 0
9 -179 0
12 -179 0
-9 -12 179 0
c gate 180 10 11 0
10 -180 0
11 -180 0
-10 -11 180 0
c gate 181 -179 -180 0
-179 -181 0
-180 -181 0
179 180 181 0
c gate 182 179 180 0
179 -182 0
180 -182 0
-179 -180 182 0
c gate 183 -181 -182 0
-181 -183 0
-182 -183 0
181 182 183 0
c gate 184 -178 -183 0
-178 -184 0
-183 -184 0
178 183 184 0
c gate 185 178 183 0
178 -185 0
183 -185 0
-178 -183 185 0
c gate 186 -184 -185 0
-184 -186 0
-185 -186 0
184 185 186 0
c gate 187 -177 186 0
-177 -187 0
186 -187 0
177 -186 187 0
c gate 188 177 -186 0
177 -188 0
-186 -188 0
-177 186 188 0
c gate 189 -187 -188 0
-187 -189 0
-188 -189 0
187 188 189 0
c gate 190 -176 -189 0
-176 -190 0
-189 -190 0
176 189 190 0
c gate 191 176 189 0
176 -191 0
189 -191 0
-176 -189 191 0
c gate 192 -190 -191 0
-190 -192 0
-191 -192 0
190 191 192 0
c gate 193 -167 192 0
-167 -193 0
192 -193 0
167 -192 193 0
c gate 194 167 -192 0
167 -194 0
-192 -194 0
-167 192 194 0
c gate 195 -193 -194 0
-193 -195 0
-194 -195 0
193 194 195 0
c gate 196 -166 -195 0
-166 -196 0
-195 -196 0
166 195 196 0
c gate 197 166 195 0
166 -197 0
195 -197 0
-166 -195 197 0
c gate 198 -196 -197 0
-196 -198 0
-197 -198 0
196 197 198 0
c gate 199 -149 198 0
-149 -199 0
198 -199 0
149 -198 199 0
c gate 200 149 -198 0
149 -200 0
-198 -200 0
-149 198 200 0
c gate 201 -199 -200 0
-199 -201 0
-200 -201 0
199 200 201 0
c gate 202 -148 -201 0
-148 -202 0
-201 -202 0
148 201 202 0
c gate 203 148 201 0
148 -203 0
201 -203 0
-148 -201 203 0
c gate 204 -202 -203 0
-202 -204 0
-203 -204 0
202 203 204 0
c gate 205 -143 204 0
-143 -205 0
204 -205 0
143 -204 205 0
c gate 206 4 12 0
4 -206 0
12 -206 0
-4 -12 206 0
c gate 207 5 11 0
5 -207 0
11 -207 0
-5 -11 207 0
c gate 208 206 207 0
206 -208 0
207 -208 0
-206 -207 208 0
c gate 209 3 13 0
3 -209 0
13 -209 0
-3 -13 209 0
c gate 210 -206 -207 0
-206 -210 0
-207 -210 0
206 207 210 0
c gate 211 -208 -210 0
-208 -211 0
-210 -211 0
208 210 211 0
c gate 212 209 211 0
209 -212 0
211 -212 0
-209 -211 212 0
c gate 213 -208 -212 0
-208 -213 0
-212 -213 0
208 212 213 0
c gate 214 -105 -107 0
-105 -214 0
-107 -214 0
105 107 214 0
c gate 215 -108 -214 0
-108 -215 0
-214 -215 0
108 214 215 0
c gate 216 -213 215 0
-213 -216 0
215 -216 0
213 -215 216 0
c gate 217 1 16 0
1 -217 0
16 -217 0
-1 -16 217 0
c gate 218 2 15 0
2 -218 0
15 -218 0
-2 -15 218 0
c gate 219 3 14 0
3 -219 0
14 -219 0
-3 -14 219 0
c gate 220 218 219 0
218 -220 0
219 -220 0
-218 -219 220 0
c gate 221 -218 -219 0
-218 -221 0
-219 -221 0
218 219 221 0
c gate 222 -220 -221 0
-220 -222 0
-221 -222 0
220 221 222 0
c gate 223 217 222 0
217 -223 0
222 -223 0
-217 -222 223 0
c gate 224 -217 -222 0
-217 -224 0
-222 -224 0
217 222 224 0
c gate 225 -223 -224 0
-223 -225 0
-224 -225 0
223 224 225 0
c gate 226 213 -215 0
213 -226 0
-215 -226 0
-213 215 226 0
c gate 227 -216 -226 0
-216 -227 0
-226 -227 0
216 226 227 0
c gate 228 225 227 0
225 -228 0
227 -228 0
-225 -227 228 0
c gate 229 -216 -228 0
-216 -229 0
-228 -229 0
216 228 229 0
c gate 230 -121 -123 0
-121 -230 0
-123 -230 0
121 123 230 0
c gate 231 -124 -230 0
-124 -231 0
-230 -231 0
124 230 231 0
c gate 232 -229 231 0
-229 -232 0
231 -232 0
229 -231 232 0
c gate 233 1 17 0
1 -233 0
17 -233 0
-1 -17 233 0
c gate 234 -220 -223 0
-220 -234 0
-223 -234 0
220 223 234 0
c gate 235 233 -234 0
233 -235 0
-234 -235 0
-233 234 235 0
c gate 236 -233 234 0
-233 -236 0
234 -236 0
233 -234 236 0
c gate 237 -235 -236 0
-235 -237 0
-236 -237 0
235 236 237 0
c gate 238 229 -231 0
229 -238 0
-231 -238 0
-229 231 238 0
c gate 239 -232 -238 0
-232 -239 0
-238 -239 0
232 238 239 0
c gate 240 237 239 0
237 -240 0
239 -240 0
-237 -239 240 0
c gate 241 -232 -240 0
-232 -241 0
-240 -241 0
232 240 241 0
c gate 242 -130 136 0
-130 -242 0
136 -242 0
130 -136 242 0
c gate 243 -137 -242 0
-137 -243 0
-242 -243 0
137 242 243 0
c gate 244 -241 -243 0
-241 -244 0
-243 -244 0
241 243 244 0
c gate 245 241 243 0
241 -245 0
243 -245 0
-241 -243 245 0
c gate 246 -244 -245 0
-244 -246 0
-245 -246 0
244 245 246 0
c gate 247 235 246 0
235 -247 0
246 -247 0
-235 -246 247 0
c gate 248 -244 -247 0
-244 -248 0
-247 -248 0
244 247 248 0
c gate 249 -135 -141 0
-135 -249 0
-141 -249 0
135 141 249 0
c gate 250 -142 -249 0
-142 -250 0
-249 -250 0
142 249 250 0
c gate 251 -248 250 0
-248 -251 0
250 -251 0
248 -250 251 0
c gate 252 -205 -251 0
-205 -252 0
-251 -252 0
205 251 252 0
c gate 253 248 -250 0
248 -253 0
-250 -253 0
-248 250 253 0
c gate 254 143 -204 0
143 -254 0
-204 -254 0
-143 204 254 0
c gate 255 -235 -246 0
-235 -255 0
-246 -255 0
235 246 255 0
c gate 256 -247 -255 0
-247 -256 0
-255 -256 0
247 255 256 0
c gate 257 3 12 0
3 -257 0
12 -257 0
-3 -12 257 0
c gate 258 4 11 0
4 -258 0
11 -258 0
-4 -11 258 0
c gate 259 257 258 0
257 -259 0
258 -259 0
-257 -258 259 0
c gate 260 2 13 0
2 -260 0
13 -260 0
-2 -13 260 0
c gate 261 -257 -258 0
-257 -261 0
-258 -261 0
257 258 261 0
c gate 262 -259 -261 0
-259 -262 0
-261 -262 0
259 261 262 0
c gate 263 260 262 0
260 -263 0
262 -263 0
-260 -262 263 0
c gate 264 -259 -263 0
-259 -264 0
-263 -264 0
259 263 264 0
c gate 265 -209 -211 0
-209 -265 0
-211 -265 0
209 211 265 0
c gate 266 -212 -265 0
-212 -266 0
-265 -266 0
212 265 266 0
c gate 267 -264 266 0
-264 -267 0
266 -267 0
264 -266 267 0
c gate 268 2 14 0
2 -268 0
14 -268 0
-2 -14 268 0
c gate 269 1 15 0
1 -269 0
15 -269 0
-1 -15 269 0
c gate 270 -268 -269 0
-268 -270 0
-269 -270 0
268 269 270 0
c gate 271 268 269 0
268 -271 0
269 -271 0
-268 -269 271 0
c gate 272 -270 -271 0
-270 -272 0
-271 -272 0
270 271 272 0
c gate 273 264 -266 0
264 -273 0
-266 -273 0
-264 266 273 0
c gate 274 -267 -273 0
-267 -274 0
-273 -274 0
267 273 274 0
c gate 275 272 274 0
272 -275 0
274 -275 0
-272 -274 275 0
c gate 276 -267 -275 0
-267 -276 0
-275 -276 0
267 275 276 0
c gate 277 -225 -227 0
-225 -277 0
-227 -277 0
225 227 277 0
c gate 278 -228 -277 0
-228 -278 0
-277 -278 0
228 277 278 0
c gate 279 -276 278 0
-276 -279 0
278 -279 0
276 -278 279 0
c gate 280 276 -278 0
276 -280 0
-278 -280 0
-276 278 280 0
c gate 281 -279 -280 0
-279 -281 0
-280 -281 0
279 280 281 0
c gate 282 271 281 0
271 -282 0
281 -282 0
-271 -281 282 0
c gate 283 -279 -282 0
-279 -283 0
-282 -283 0
279 282 283 0
c gate 284 -237 -239 0
-237 -284 0
-239 -284 0
237 239 284 0
c gate 285 -240 -284 0
-240 -285 0
-284 -285 0
240 284 285 0
c gate 286 -283 285 0
-283 -286 0
285 -286 0
283 -285 286 0
c gate 287 256 286 0
256 -287 0
286 -287 0
-256 -286 287 0
c gate 288 -254 287 0
-254 -288 0
287 -288 0
254 -287 288 0
c gate 289 -253 288 0
-253 -289 0
288 -289 0
253 -288 289 0
c gate 290 252 289 0
252 -290 0
289 -290 0
-252 -289 290 0
c PO
290 0
